(declare-const x_init Int)
(declare-const c_0 Int)
(declare-const c_1 Int)
(declare-const c_2 Int)
(declare-const c_3 Int)
(declare-const c_4 Int)
(declare-const c_5 Int)
(assert (< c_0 0))
(assert (and (>= (+ (* 1 c_1 ) (* (- 1) x_init ) ) 0) (>= (+ (* (- 1) c_1 ) (* 1 x_init ) ) 0) ))
(assert (forall ((x Real) ) (=> (and (>= (+ (* 1 c_1 ) (* (- 1) x ) ) 0) (>= (+ (* (- 1) c_1 ) (* 1 x ) ) 0) ) (>= (+ (* 1 c_2 ) (* 1 c_3 x ) ) 0) )))
(assert (forall ((x Real) ) (=> (and (>= (+ (* 1 c_1 ) (* (- 1) x ) ) 0) (>= (+ (* (- 1) c_1 ) (* 1 x ) ) 0) ) (>= (+ (* 1 c_4 ) (* 1 c_5 x ) ) 0) )))
(assert (forall ((x Real) ) (=> (and (>= (+ (* (- 1) 1) (* (- 1) x ) ) 0) (>= (+ (* 5 1) (* 1 x ) ) 0) (>= (+ (* 35 1) (* (- 1) x ) ) 0) (>= (+ (* 1 c_2 ) (* 1 c_3 x ) ) 0) (>= (+ (* 1 c_4 ) (* 1 c_5 x ) ) 0) ) (>= (+ (* 1 c_2 ) (* (- 5) c_3 ) ) 0) )))
(assert (forall ((x Real) ) (=> (and (>= (+ (* (- 1) 1) (* (- 1) x ) ) 0) (>= (+ (* 5 1) (* 1 x ) ) 0) (>= (+ (* 35 1) (* (- 1) x ) ) 0) (>= (+ (* 1 c_2 ) (* 1 c_3 x ) ) 0) (>= (+ (* 1 c_4 ) (* 1 c_5 x ) ) 0) ) (>= (+ (* 1 c_4 ) (* (- 5) c_5 ) ) 0) )))
(assert (forall ((x Real) ) (=> (and (>= (+ (* (- 31) 1) (* 1 x ) ) 0) (>= (* 1 x ) 0) (>= (+ (* 5 1) (* 1 x ) ) 0) (>= (+ (* 35 1) (* (- 1) x ) ) 0) (>= (+ (* (- 1) 1) (* (- 1) x ) ) 0) (>= (+ (* 1 c_2 ) (* 1 c_3 x ) ) 0) (>= (+ (* 1 c_4 ) (* 1 c_5 x ) ) 0) ) (>= (+ (* 1 c_2 ) (* 35 c_3 ) ) 0) )))
(assert (forall ((x Real) ) (=> (and (>= (+ (* (- 31) 1) (* 1 x ) ) 0) (>= (* 1 x ) 0) (>= (+ (* 5 1) (* 1 x ) ) 0) (>= (+ (* 35 1) (* (- 1) x ) ) 0) (>= (+ (* (- 1) 1) (* (- 1) x ) ) 0) (>= (+ (* 1 c_2 ) (* 1 c_3 x ) ) 0) (>= (+ (* 1 c_4 ) (* 1 c_5 x ) ) 0) ) (>= (+ (* 1 c_4 ) (* 35 c_5 ) ) 0) )))
(assert (forall ((x Real) ) (=> (and (>= (+ (* 30 1) (* (- 1) x ) ) 0) (>= (* 1 x ) 0) (>= (+ (* 5 1) (* 1 x ) ) 0) (>= (+ (* 35 1) (* (- 1) x ) ) 0) (>= (+ (* (- 1) 1) (* (- 1) x ) ) 0) (>= (+ (* 1 c_2 ) (* 1 c_3 x ) ) 0) (>= (+ (* 1 c_4 ) (* 1 c_5 x ) ) 0) ) (>= (+ (* 1 c_2 ) (* (- 1) c_3 ) (* 1 c_3 x ) ) 0) )))
(assert (forall ((x Real) ) (=> (and (>= (+ (* 30 1) (* (- 1) x ) ) 0) (>= (* 1 x ) 0) (>= (+ (* 5 1) (* 1 x ) ) 0) (>= (+ (* 35 1) (* (- 1) x ) ) 0) (>= (+ (* (- 1) 1) (* (- 1) x ) ) 0) (>= (+ (* 1 c_2 ) (* 1 c_3 x ) ) 0) (>= (+ (* 1 c_4 ) (* 1 c_5 x ) ) 0) ) (>= (+ (* 1 c_4 ) (* (- 1) c_5 ) (* 1 c_5 x ) ) 0) )))
(assert (forall ((x Real) ) (=> (and (>= (+ (* (- 6) 1) (* (- 1) x ) ) 0) (>= (+ (* (- 1) 1) (* (- 1) x ) ) 0) (>= (+ (* 1 c_2 ) (* 1 c_3 x ) ) 0) (>= (+ (* 1 c_4 ) (* 1 c_5 x ) ) 0) ) (>= (* 1 c_2 ) 0) )))
(assert (forall ((x Real) ) (=> (and (>= (+ (* (- 6) 1) (* (- 1) x ) ) 0) (>= (+ (* (- 1) 1) (* (- 1) x ) ) 0) (>= (+ (* 1 c_2 ) (* 1 c_3 x ) ) 0) (>= (+ (* 1 c_4 ) (* 1 c_5 x ) ) 0) ) (>= (* 1 c_4 ) 0) )))
(assert (forall ((x Real) ) (=> (and (>= (+ (* (- 36) 1) (* 1 x ) ) 0) (>= (+ (* (- 1) 1) (* (- 1) x ) ) 0) (>= (+ (* 1 c_2 ) (* 1 c_3 x ) ) 0) (>= (+ (* 1 c_4 ) (* 1 c_5 x ) ) 0) ) (>= (* 1 c_2 ) 0) )))
(assert (forall ((x Real) ) (=> (and (>= (+ (* (- 36) 1) (* 1 x ) ) 0) (>= (+ (* (- 1) 1) (* (- 1) x ) ) 0) (>= (+ (* 1 c_2 ) (* 1 c_3 x ) ) 0) (>= (+ (* 1 c_4 ) (* 1 c_5 x ) ) 0) ) (>= (* 1 c_4 ) 0) )))
(assert (forall ((x Real) ) (=> (and (>= (+ (* (- 1) 1) (* (- 1) x ) ) 0) (>= (+ (* 5 1) (* 1 x ) ) 0) (>= (+ (* 35 1) (* (- 1) x ) ) 0) (>= (+ (* (- 1) 1) (* 1 x ) ) 0) (>= (+ (* 1 c_2 ) (* 1 c_3 x ) ) 0) (>= (+ (* 1 c_4 ) (* 1 c_5 x ) ) 0) ) (>= (+ (* 1 c_2 ) (* (- 5) c_3 ) ) 0) )))
(assert (forall ((x Real) ) (=> (and (>= (+ (* (- 1) 1) (* (- 1) x ) ) 0) (>= (+ (* 5 1) (* 1 x ) ) 0) (>= (+ (* 35 1) (* (- 1) x ) ) 0) (>= (+ (* (- 1) 1) (* 1 x ) ) 0) (>= (+ (* 1 c_2 ) (* 1 c_3 x ) ) 0) (>= (+ (* 1 c_4 ) (* 1 c_5 x ) ) 0) ) (>= (+ (* 1 c_4 ) (* (- 5) c_5 ) ) 0) )))
(assert (forall ((x Real) ) (=> (and (>= (+ (* (- 31) 1) (* 1 x ) ) 0) (>= (* 1 x ) 0) (>= (+ (* 5 1) (* 1 x ) ) 0) (>= (+ (* 35 1) (* (- 1) x ) ) 0) (>= (+ (* (- 1) 1) (* 1 x ) ) 0) (>= (+ (* 1 c_2 ) (* 1 c_3 x ) ) 0) (>= (+ (* 1 c_4 ) (* 1 c_5 x ) ) 0) ) (>= (+ (* 1 c_2 ) (* 35 c_3 ) ) 0) )))
(assert (forall ((x Real) ) (=> (and (>= (+ (* (- 31) 1) (* 1 x ) ) 0) (>= (* 1 x ) 0) (>= (+ (* 5 1) (* 1 x ) ) 0) (>= (+ (* 35 1) (* (- 1) x ) ) 0) (>= (+ (* (- 1) 1) (* 1 x ) ) 0) (>= (+ (* 1 c_2 ) (* 1 c_3 x ) ) 0) (>= (+ (* 1 c_4 ) (* 1 c_5 x ) ) 0) ) (>= (+ (* 1 c_4 ) (* 35 c_5 ) ) 0) )))
(assert (forall ((x Real) ) (=> (and (>= (+ (* 30 1) (* (- 1) x ) ) 0) (>= (* 1 x ) 0) (>= (+ (* 5 1) (* 1 x ) ) 0) (>= (+ (* 35 1) (* (- 1) x ) ) 0) (>= (+ (* (- 1) 1) (* 1 x ) ) 0) (>= (+ (* 1 c_2 ) (* 1 c_3 x ) ) 0) (>= (+ (* 1 c_4 ) (* 1 c_5 x ) ) 0) ) (>= (+ (* 1 c_2 ) (* (- 1) c_3 ) (* 1 c_3 x ) ) 0) )))
(assert (forall ((x Real) ) (=> (and (>= (+ (* 30 1) (* (- 1) x ) ) 0) (>= (* 1 x ) 0) (>= (+ (* 5 1) (* 1 x ) ) 0) (>= (+ (* 35 1) (* (- 1) x ) ) 0) (>= (+ (* (- 1) 1) (* 1 x ) ) 0) (>= (+ (* 1 c_2 ) (* 1 c_3 x ) ) 0) (>= (+ (* 1 c_4 ) (* 1 c_5 x ) ) 0) ) (>= (+ (* 1 c_4 ) (* (- 1) c_5 ) (* 1 c_5 x ) ) 0) )))
(assert (forall ((x Real) ) (=> (and (>= (+ (* (- 6) 1) (* (- 1) x ) ) 0) (>= (+ (* (- 1) 1) (* 1 x ) ) 0) (>= (+ (* 1 c_2 ) (* 1 c_3 x ) ) 0) (>= (+ (* 1 c_4 ) (* 1 c_5 x ) ) 0) ) (>= (* 1 c_2 ) 0) )))
(assert (forall ((x Real) ) (=> (and (>= (+ (* (- 6) 1) (* (- 1) x ) ) 0) (>= (+ (* (- 1) 1) (* 1 x ) ) 0) (>= (+ (* 1 c_2 ) (* 1 c_3 x ) ) 0) (>= (+ (* 1 c_4 ) (* 1 c_5 x ) ) 0) ) (>= (* 1 c_4 ) 0) )))
(assert (forall ((x Real) ) (=> (and (>= (+ (* (- 36) 1) (* 1 x ) ) 0) (>= (+ (* (- 1) 1) (* 1 x ) ) 0) (>= (+ (* 1 c_2 ) (* 1 c_3 x ) ) 0) (>= (+ (* 1 c_4 ) (* 1 c_5 x ) ) 0) ) (>= (* 1 c_2 ) 0) )))
(assert (forall ((x Real) ) (=> (and (>= (+ (* (- 36) 1) (* 1 x ) ) 0) (>= (+ (* (- 1) 1) (* 1 x ) ) 0) (>= (+ (* 1 c_2 ) (* 1 c_3 x ) ) 0) (>= (+ (* 1 c_4 ) (* 1 c_5 x ) ) 0) ) (>= (* 1 c_4 ) 0) )))
(assert (forall ((x Real) ) (=> (and (>= (* 1 x ) 0) (>= (* (- 1) x ) 0) (>= (+ (* 1 c_2 ) (* 1 c_3 x ) ) 0) (>= (+ (* 1 c_4 ) (* 1 c_5 x ) ) 0) ) (>= (* 1 c_0 ) 0) )))
(check-sat)
(get-model)

